GLPSOL: GLPK LP/MIP Solver, v4.57
Parameter(s) specified in the command line:
 -m shortest_paths_without_parity.mod -d data/data_1_18.dat -o outputs/output_1_18.txt
Reading model section from shortest_paths_without_parity.mod...
40 lines were read
Reading data section from data/data_1_18.dat...
data/data_1_18.dat:2448: warning: final NL missing before end of file
2448 lines were read
Generating obj...
Generating cons1O1...
Generating cons1O2...
Generating cons1NotOD...
Generating cons1D1...
Generating cons1D2...
Generating cons2O1...
Generating cons2O2...
Generating cons2NotOD...
Generating cons2D1...
Generating cons2D2...
Generating umradio...
Model has been successfully generated
GLPK Integer Optimizer, v4.57
235 rows, 4882 columns, 19478 non-zeros
4882 integer variables, all of which are binary
Preprocessing...
229 rows, 4766 columns, 14248 non-zeros
4766 integer variables, all of which are binary
Scaling...
 A: min|aij| =  1.000e+00  max|aij| =  1.000e+00  ratio =  1.000e+00
Problem data seem to be well scaled
Constructing initial basis...
Size of triangular part is 228
Solving LP relaxation...
GLPK Simplex Optimizer, v4.57
229 rows, 4766 columns, 14248 non-zeros
      0: obj =   1.000000000e+02 inf =   5.000e+00 (5)
     46: obj =   2.023050000e+04 inf =   0.000e+00 (0)
